10330
1 1 1 1 1 1 1 1 1 0 
5 7 8 2 5 2 5 6 3 2 6 3 4 0 6 4 5 0 3 0 7 6 3 5 6 2 5 7 0 3 3 8 2 1 3 7 6 3 6 4 5 7 8 8 1 7 0 2 4 6 9032
1 1 1 1 1 1 1 1 1 0 
5 7 8 2 5 2 5 6 3 2 6 3 4 0 6 4 5 0 3 0 7 6 3 5 6 2 5 7 0 3 3 8 2 1 3 7 6 3 6 4 5 7 8 8 1 7 0 2 4 6 10832
1 1 1 1 1 1 1 1 1 0 
5 7 8 2 5 2 5 6 3 2 6 3 4 0 6 4 5 0 3 0 7 6 3 5 6 2 5 7 0 3 3 8 2 1 3 7 6 3 6 4 5 7 8 8 1 7 0 2 4 6 12632
1 1 1 1 1 1 1 1 1 0 
5 7 8 2 5 2 5 6 3 2 6 3 4 0 6 4 5 0 3 0 7 6 3 5 6 2 5 7 0 3 3 8 2 1 3 7 6 3 6 4 5 7 8 8 1 7 0 2 4 6 11168
1 1 1 1 1 1 1 1 1 0 
5 7 8 2 7 2 5 6 3 2 6 3 4 0 6 4 5 0 3 2 7 6 3 5 6 4 5 7 0 3 3 8 2 1 6 7 8 3 6 4 0 7 8 8 1 7 0 2 4 8 9870
1 1 1 1 1 1 1 1 1 0 
5 7 8 2 7 2 5 6 3 2 6 3 4 0 6 4 5 0 3 2 7 6 3 5 6 4 5 7 0 3 3 8 2 1 6 7 8 3 6 4 0 7 8 8 1 7 0 2 4 8 11670
1 1 1 1 1 1 1 1 1 0 
5 7 8 2 7 2 5 6 3 2 6 3 4 0 6 4 5 0 3 2 7 6 3 5 6 4 5 7 0 3 3 8 2 1 6 7 8 3 6 4 0 7 8 8 1 7 0 2 4 8 13470
1 1 1 1 1 1 1 1 1 0 
5 7 8 2 7 2 5 6 3 2 6 3 4 0 6 4 5 0 3 2 7 6 3 5 6 4 5 7 0 3 3 8 2 1 6 7 8 3 6 4 0 7 8 8 1 7 0 2 4 8 10282
1 1 1 1 1 1 1 1 1 0 
5 7 8 2 7 2 5 6 3 2 6 3 4 0 6 4 5 0 3 7 7 6 3 5 6 2 5 7 0 3 3 8 2 1 3 7 6 3 6 4 5 7 8 8 1 7 0 2 4 6 8984
1 1 1 1 1 1 1 1 1 0 
5 7 8 2 7 2 5 6 3 2 6 3 4 0 6 4 5 0 3 7 7 6 3 5 6 2 5 7 0 3 3 8 2 1 3 7 6 3 6 4 5 7 8 8 1 7 0 2 4 6 10784
1 1 1 1 1 1 1 1 1 0 
5 7 8 2 7 2 5 6 3 2 6 3 4 0 6 4 5 0 3 7 7 6 3 5 6 2 5 7 0 3 3 8 2 1 3 7 6 3 6 4 5 7 8 8 1 7 0 2 4 6 12584
1 1 1 1 1 1 1 1 1 0 
5 7 8 2 7 2 5 6 3 2 6 3 4 0 6 4 5 0 3 7 7 6 3 5 6 2 5 7 0 3 3 8 2 1 3 7 6 3 6 4 5 7 8 8 1 7 0 2 4 6 11492
1 1 0 1 1 1 1 1 1 1 0 1 1 1 1 1 1 1 1 0 
0 6 1 18 7 14 12 11 5 4 18 5 8 6 12 13 4 0 12 1 15 16 4 9 14 3 15 7 5 6 1 0 17 4 0 8 0 6 11 1 0 6 16 17 4 5 12 14 13 8 9257
1 1 0 1 1 1 1 1 1 1 0 1 1 1 1 1 1 1 1 0 
0 6 1 18 7 14 12 11 5 4 18 5 8 6 12 13 4 0 12 1 15 16 4 9 14 3 15 7 5 6 1 0 17 4 0 8 0 6 11 1 0 6 16 17 4 5 12 14 13 8 12657
1 1 0 1 1 1 1 1 1 1 0 1 1 1 1 1 1 1 1 0 
0 6 1 18 7 14 12 11 5 4 18 5 8 6 12 13 4 0 12 1 15 16 4 9 14 3 15 7 5 6 1 0 17 4 0 8 0 6 11 1 0 6 16 17 4 5 12 14 13 8 16057
1 1 0 1 1 1 1 1 1 1 0 1 1 1 1 1 1 1 1 0 
0 6 1 18 7 14 12 11 5 4 18 5 8 6 12 13 4 0 12 1 15 16 4 9 14 3 15 7 5 6 1 0 17 4 0 8 0 6 11 1 0 6 16 17 4 5 12 14 13 8 11492
1 1 0 1 1 1 1 1 1 1 0 1 1 1 1 1 1 1 1 0 
0 6 1 18 7 14 12 11 5 4 18 5 8 6 12 13 4 0 12 1 15 16 4 9 14 3 15 7 5 6 1 0 17 4 0 8 0 6 11 1 0 6 16 17 4 5 12 14 13 8 